HFSDDW
20	4	2
0	83	1	8
0	58	1	19
0	52	1	53
0	77	1	26
0	4	1	3
0	45	1	85
0	89	1	49
0	93	1	97
0	45	1	85
0	41	1	60
0	47	1	54
0	19	1	34
0	60	1	33
0	16	1	10
0	25	1	63
0	18	1	47
0	12	1	96
0	32	1	26
0	97	1	29
0	22	1	3
LBCmax: 472
RELDUE
-1	143	4	7
-1	160	1	4
-1	177	8	9
-1	404	7	9
-1	271	2	7
-1	158	1	2
-1	306	6	4
-1	347	6	4
-1	199	4	3
-1	301	8	5
-1	260	7	4
-1	346	9	7
-1	169	2	5
-1	267	4	7
-1	318	4	1
-1	224	4	7
-1	396	7	1
-1	209	6	4
-1	308	1	7
-1	197	1	5
DDW
133	153
138	182
158	196
360	448
238	304
149	167
300	312
295	399
165	233
286	316
213	307
301	391
155	183
264	270
289	347
181	267
333	459
194	224
296	320
181	213
